% Número de regiões
n = 26;
% Número de relações
m = 46;

regiao1 = [1,1,2,3,3,3,4,4,5,6,7,7,7,7,7,8,8,9,9,9,10,12,12,13,13,14,14,14,15,16,16,17,17,17,18,19,19,20,20,21,21,22,23,24,24,25];
regiao2 = [2,3,3,4,6,7,5,6,6,7,8,9,12,13,14,9,12,10,11,12,11,13,14,14,15,15,16,18,16,17,18,18,19,20,19,20,21,21,22,22,23,23,24,25,26,26];

% Cores que a região não deve assumir
restricoes = [{}, {}, {Azul}, {}, {}, {}, {}, {}, {Vermelho,Verde}, {}, {}, {}, {}, {Vermelho,Azul,Verde}, {}, {Vermelho}, {Vermelho,Azul,Verde}, {}, {}, {}, {}, {}, {}, {}, {}, {}];

